## DFPT Phonon ({{ precision }})
## Generated by DFT Workflow on {{ date }}
## NOTE: LWAVE/LCHARG corrected from .FLASE. to .FALSE.

PREC    = {{ prec }}
ENCUT   = {{ encut }}
EDIFF   = {{ ediff }}

ISMEAR  = 0
SIGMA   = 0.05

IBRION  = 8                 # DFPT
IALGO   = 38                # Davidson

LREAL   = .FALSE.
LWAVE   = .FALSE.           # Corrected from .FLASE.
LCHARG  = .FALSE.           # Corrected from .FLASE.
ADDGRID = .TRUE.

NSW     = 1
NELM    = 100
NELMDL  = -5
