## AIMD ({{ precision }})
## Generated by DFT Workflow on {{ date }}
## Nose-Hoover NVT, 300K, 3ps

ENCUT   = {{ encut }}
NCORE   = {{ ncore }}
IVDW    = {{ ivdw }}
PREC    = {{ prec }}
ALGO    = {{ algo }}

ISMEAR  = 0
SIGMA   = 0.1
EDIFF   = 1.0E-05

IBRION  = 0                 # MD
ISIF    = 2
MDALGO  = 2                 # Nose-Hoover
SMASS   = 1.0
TEBEG   = {{ tebeg }}
TEEND   = {{ teend }}
NSW     = {{ nsw }}
POTIM   = {{ potim }}

LREAL   = Auto
ISYM    = 0
