## Optical Properties (HSE06, {{ precision }})
## Generated by DFT Workflow on {{ date }}

SYSTEM  = {{ system_name }}
ENCUT   = {{ encut }}
NCORE   = {{ ncore }}
IVDW    = {{ ivdw }}
LREAL   = {{ lreal }}
ADDGRID = {{ addgrid }}

ICHARG  = 11
ISPIN   = {{ ispin }}

LHFCALC = .TRUE.
AEXX    = 0.25
HFSCREEN = 0.2
ALGO    = Normal
TIME    = 0.4
PRECFOCK = Normal
ENCUTFOCK = 0

ISMEAR  = -5
EDIFF   = 1E-08
NELM    = 200
NELMIN  = 5
NSIM    = 4

LOPTICS = .TRUE.
CSHIFT  = {{ cshift }}
NEDOS   = {{ nedos }}
NBANDS  = {{ nbands_optical }}

NSW     = 0
IBRION  = -1
ISYM    = 0
LMAXMIX = 4

LWAVE   = .FALSE.
LCHARG  = .FALSE.
