## PBE Band Structure (non-SCF, read CHGCAR)

SYSTEM  = {{ system_name }}
PREC    = Accurate
ENCUT   = {{ encut }}
NCORE   = {{ ncore }}
IVDW    = {{ ivdw }}
LREAL   = {{ lreal }}
ADDGRID = {{ addgrid }}

ISTART  = 0
ISPIN   = {{ ispin }}
ICHARG  = 11
LORBIT  = 11

ISMEAR  = 0
SIGMA   = 0.05
EDIFF   = {{ ediff }}

NSW     = 0
IBRION  = -1
LWAVE   = .FALSE.
LCHARG  = .FALSE.
