## Finite-displacement phonopy force calculation
## Generated by DFT Workflow on {{ date }}

SYSTEM  = {{ system_name }}
PREC    = {{ prec }}
ENCUT   = {{ encut }}
NCORE   = {{ ncore }}
IVDW    = {{ ivdw }}
LREAL   = .FALSE.
ADDGRID = .TRUE.

ISPIN   = {{ ispin }}
ISMEAR  = 0
SIGMA   = 0.05
EDIFF   = {{ ediff }}
NELM    = {{ nelm }}
NELMIN  = {{ nelmin }}

NSW     = 0
IBRION  = -1
ISIF    = 2

LWAVE   = .FALSE.
LCHARG  = .FALSE.
