## Charge Density Difference

SYSTEM  = {{ system_name }}
PREC    = Accurate
ENCUT   = {{ encut }}
NCORE   = {{ ncore }}
IVDW    = {{ ivdw }}
LREAL   = {{ lreal }}
ADDGRID = {{ addgrid }}

ISMEAR  = 0
SIGMA   = 0.05
EDIFF   = {{ ediff }}

NSW     = 0
IBRION  = -1

LWAVE   = .TRUE.
LCHARG  = .TRUE.
