## Effective Mass

SYSTEM  = {{ system_name }}
PREC    = Accurate
ENCUT   = {{ encut }}
NCORE   = {{ ncore }}
IVDW    = {{ ivdw }}
LREAL   = {{ lreal }}
ADDGRID = {{ addgrid }}

ICHARG  = 11
ISYM    = 0
LORBIT  = 11

ISMEAR  = 0
SIGMA   = 0.05
EDIFF   = {{ ediff }}

NSW     = 0
IBRION  = -1

LWAVE   = .FALSE.
LCHARG  = .FALSE.
